Code/kinematic_3_0.output
                                                                                              ODE Progress [FWD]:  Time =    0.13501 / 0.20      67%  Box Width =  101.00000	                                                                                              ODE Progress [FWD]:  Time =    0.20000 / 0.20     100%  Box Width =  101.00000	 [Done] 
                                                                                              ODE Progress [FWD]:  Time =    0.10000 / 0.10     100%  Box Width =  101.00000	 [Done] 
                                                                                              ODE Progress [FWD]:  Time =    0.13501 / 2.00       6%  Box Width =  101.00000	                                                                                              ODE Progress [FWD]:  Time =    0.33753 / 2.00      16%  Box Width =  101.00000	                                                                                              ODE Progress [FWD]:  Time =    0.64131 / 2.00      32%  Box Width =  101.00000	                                                                                              ODE Progress [FWD]:  Time =    1.09698 / 2.00      54%  Box Width =  101.00000	                                                                                              ODE Progress [FWD]:  Time =    1.78049 / 2.00      89%  Box Width =  101.00000	                                                                                              ODE Progress [FWD]:  Time =    2.00000 / 2.00     100%  Box Width =  101.00000	 [Done] 
 [ISolverException]
 [ISolverException]
                                                                                              ODE Progress [BWD]:  Time =    0.13447 / 0.20      67%  Box Width =  101.00000	                                                                                              ODE Progress [BWD]:  Time =    0.20000 / 0.20     100%  Box Width =  101.00000	 [Done] 
                                                                                              ODE Progress [BWD]:  Time =    0.10000 / 0.10     100%  Box Width =  101.00000	 [Done] 
                                                                                              ODE Progress [BWD]:  Time =    0.13501 / 0.20      67%  Box Width =  101.00000	                                                                                              ODE Progress [BWD]:  Time =    0.20000 / 0.20     100%  Box Width =  101.00000	 [Done] 
                                                                                              ODE Progress [FWD]:  Time =    0.13501 / 0.20      67%  Box Width =  101.00000	                                                                                              ODE Progress [FWD]:  Time =    0.20000 / 0.20     100%  Box Width =  101.00000	 [Done] 
                                                                                              ODE Progress [FWD]:  Time =    0.10000 / 0.10     100%  Box Width =  101.00000	 [Done] 
                                                                                              ODE Progress [FWD]:  Time =    0.13501 / 0.20      67%  Box Width =  101.00000	                                                                                              ODE Progress [FWD]:  Time =    0.20000 / 0.20     100%  Box Width =  101.00000	 [Done] 
                                                                                              ODE Progress [FWD]:  Time =    0.07812 / 1.90       4%  Box Width =  101.00000	                                                                                              ODE Progress [FWD]:  Time =    0.16016 / 1.90       8%  Box Width =  101.00000	                                                                                              ODE Progress [FWD]:  Time =    0.23828 / 1.90      12%  Box Width =  101.00000	                                                                                              ODE Progress [FWD]:  Time =    0.31641 / 1.90      16%  Box Width =  101.00000	                                                                                              ODE Progress [FWD]:  Time =    0.39453 / 1.90      20%  Box Width =  101.00000	                                                                                              ODE Progress [FWD]:  Time =    0.47656 / 1.90      25%  Box Width =  101.00000	                                                                                              ODE Progress [FWD]:  Time =    0.55469 / 1.90      29%  Box Width =  101.00000	                                                                                              ODE Progress [FWD]:  Time =    0.63281 / 1.90      33%  Box Width =  101.00000	                                                                                              ODE Progress [FWD]:  Time =    0.71094 / 1.90      37%  Box Width =  101.00000	                                                                                              ODE Progress [FWD]:  Time =    0.79297 / 1.90      41%  Box Width =  101.00000	                                                                                              ODE Progress [FWD]:  Time =    0.87109 / 1.90      45%  Box Width =  101.00000	                                                                                              ODE Progress [FWD]:  Time =    0.94922 / 1.90      49%  Box Width =  101.00000	                                                                                              ODE Progress [FWD]:  Time =    1.02734 / 1.90      54%  Box Width =  101.00000	                                                                                              ODE Progress [FWD]:  Time =    1.10938 / 1.90      58%  Box Width =  101.00000	                                                                                              ODE Progress [FWD]:  Time =    1.18750 / 1.90      62%  Box Width =  101.00000	                                                                                              ODE Progress [FWD]:  Time =    1.26562 / 1.90      66%  Box Width =  101.00000	                                                                                              ODE Progress [FWD]:  Time =    1.34766 / 1.90      70%  Box Width =  101.00000	                                                                                              ODE Progress [FWD]:  Time =    1.42969 / 1.90      75%  Box Width =  101.00000	                                                                                              ODE Progress [FWD]:  Time =    1.51172 / 1.90      79%  Box Width =  101.00000	                                                                                              ODE Progress [FWD]:  Time =    1.58984 / 1.90      83%  Box Width =  101.00000	                                                                                              ODE Progress [FWD]:  Time =    1.67188 / 1.90      87%  Box Width =  101.00000	                                                                                              ODE Progress [FWD]:  Time =    1.75391 / 1.90      92%  Box Width =  101.00000	                                                                                              ODE Progress [FWD]:  Time =    1.83594 / 1.90      96%  Box Width =  101.00000	                                                                                              ODE Progress [FWD]:  Time =    1.90000 / 1.90     100%  Box Width =  101.00000	 [Done] 
                                                                                              ODE Progress [FWD]:  Time =    0.13501 / 0.20      67%  Box Width =  101.00000	                                                                                              ODE Progress [FWD]:  Time =    0.20000 / 0.20     100%  Box Width =  101.00000	 [Done] 
                                                                                              ODE Progress [FWD]:  Time =    0.10000 / 0.10     100%  Box Width =  101.00000	 [Done] 
                                                                                              ODE Progress [FWD]:  Time =    0.13501 / 0.20      67%  Box Width =  101.00000	                                                                                              ODE Progress [FWD]:  Time =    0.20000 / 0.20     100%  Box Width =  101.00000	 [Done] 
                                                                                              ODE Progress [FWD]:  Time =    0.07812 / 1.90       4%  Box Width =  101.00000	                                                                                              ODE Progress [FWD]:  Time =    0.16016 / 1.90       8%  Box Width =  101.00000	                                                                                              ODE Progress [FWD]:  Time =    0.23828 / 1.90      12%  Box Width =  101.00000	                                                                                              ODE Progress [FWD]:  Time =    0.31641 / 1.90      16%  Box Width =  101.00000	                                                                                              ODE Progress [FWD]:  Time =    0.39453 / 1.90      20%  Box Width =  101.00000	                                                                                              ODE Progress [FWD]:  Time =    0.47656 / 1.90      25%  Box Width =  101.00000	                                                                                              ODE Progress [FWD]:  Time =    0.55469 / 1.90      29%  Box Width =  101.00000	                                                                                              ODE Progress [FWD]:  Time =    0.63281 / 1.90      33%  Box Width =  101.00000	                                                                                              ODE Progress [FWD]:  Time =    0.71094 / 1.90      37%  Box Width =  101.00000	                                                                                              ODE Progress [FWD]:  Time =    0.79297 / 1.90      41%  Box Width =  101.00000	                                                                                              ODE Progress [FWD]:  Time =    0.87109 / 1.90      45%  Box Width =  101.00000	                                                                                              ODE Progress [FWD]:  Time =    0.94922 / 1.90      49%  Box Width =  101.00000	                                                                                              ODE Progress [FWD]:  Time =    1.02734 / 1.90      54%  Box Width =  101.00000	                                                                                              ODE Progress [FWD]:  Time =    1.10938 / 1.90      58%  Box Width =  101.00000	                                                                                              ODE Progress [FWD]:  Time =    1.18750 / 1.90      62%  Box Width =  101.00000	                                                                                              ODE Progress [FWD]:  Time =    1.26562 / 1.90      66%  Box Width =  101.00000	                                                                                              ODE Progress [FWD]:  Time =    1.34766 / 1.90      70%  Box Width =  101.00000	                                                                                              ODE Progress [FWD]:  Time =    1.42969 / 1.90      75%  Box Width =  101.00000	                                                                                              ODE Progress [FWD]:  Time =    1.51172 / 1.90      79%  Box Width =  101.00000	                                                                                              ODE Progress [FWD]:  Time =    1.58984 / 1.90      83%  Box Width =  101.00000	                                                                                              ODE Progress [FWD]:  Time =    1.67188 / 1.90      87%  Box Width =  101.00000	                                                                                              ODE Progress [FWD]:  Time =    1.75391 / 1.90      92%  Box Width =  101.00000	                                                                                              ODE Progress [FWD]:  Time =    1.83594 / 1.90      96%  Box Width =  101.00000	                                                                                              ODE Progress [FWD]:  Time =    1.90000 / 1.90     100%  Box Width =  101.00000	 [Done] 
unsat
